!GOAT XTB2 ALPB(Water)

%pal
nprocs 4
end

*XYZ {charge} {spin} 
PASTE COORDINATES HERE
*

