!GOAT XTB2 ALPB(Water)

%pal
nprocs 36
end

*XYZ {charge} {spin} 
PASTE COORDINATES HERE
*

