! XTB ALPB(WATER)

%solvator
nsolv {nsolv}
end

* xyz {charge} {spin}
{coordinates}*
